105445
80 16 39 12 60 52 28 1 59 49 64 51 67 45 79 11 33 21 92 35 86 89 83 61 66 71 76 84 69 96 40 55 26 74 14 42 23 9 5 93 10 22 30 6 98 77 37 75 87 53 18 27 4 41 29 24 99 13 20 38 95 17 82 46 25 15 48 91 0 97 31 65 34 81 90 88 43 50 2 57 94 63 58 7 62 56 8 19 72 70 47 32 78 68 3 54 36 73 44 85 
